62      4       
18      19      14      19      
0       0       0       0       0       3       2       3       4       
1       0       3       0       0       3       6       9       22      
10      1       0       0       0       2       8       20      
6       0       0       0       2       3       5       21      32      
2       2       0       0       0       3       16      24      47      
5       0       0       0       7       3       7       13      31      
9       0       0       0       5       2       10      26      
5       0       3       0       0       3       12      14      38      
2       3       0       0       0       3       11      21      29      
9       0       0       7       0       3       27      34      43      
3       6       0       0       0       3       18      25      57      
6       9       0       0       0       3       15      19      40      
10      7       0       0       0       1       19      
5       4       0       0       0       2       32      57      
10      0       6       0       0       3       17      22      51      
6       8       0       0       0       2       28      33      
9       0       0       0       8       2       36      48      
1       0       0       10      0       2       23      54      
6       0       0       10      0       3       28      30      60      
10      0       0       0       10      3       31      44      47      
1       9       0       0       0       2       35      38      
7       9       0       0       0       2       37      42      
7       10      0       0       0       2       37      49      
10      0       10      0       0       2       29      50      
7       0       0       0       3       3       39      41      54      
10      0       8       0       0       3       29      30      36      
7       0       7       0       0       2       33      49      
1       0       0       0       7       1       42      
4       0       0       0       7       3       41      44      55      
2       0       0       5       0       1       45      
8       0       0       0       2       1       59      
10      5       0       0       0       1       45      
9       0       0       0       9       2       50      53      
9       0       0       3       0       1       52      
1       0       0       0       3       1       56      
1       0       1       0       0       2       46      54      
10      8       0       0       0       2       45      52      
10      2       0       0       0       1       47      
9       0       10      0       0       1       48      
2       8       0       0       0       3       43      46      58      
2       7       0       0       0       1       61      
9       0       0       0       10      1       55      
2       7       0       0       0       2       44      57      
7       0       0       2       0       1       49      
7       3       0       0       0       2       48      56      
2       0       0       10      0       1       50      
10      0       0       0       8       2       52      61      
4       0       2       0       0       1       58      
7       0       9       0       0       1       60      
6       7       0       0       0       1       61      
4       0       9       0       0       1       53      
6       0       0       0       7       1       53      
5       0       6       0       0       1       55      
4       0       3       0       0       1       56      
7       0       2       0       0       1       58      
8       0       0       8       0       1       59      
1       0       0       0       5       1       60      
1       0       0       0       4       1       59      
2       0       0       0       5       1       62      
3       0       8       0       0       1       62      
7       4       0       0       0       1       62      
0       0       0       0       0       0       